%nprocshared=16
%mem=512MB
#p hf/6-31g(d) SCF=Tight Pop=MK IOp(6/33=2)

KM3

1 1
 C         4.40052000     -2.83812000      0.54139800
 H         4.89222000     -2.29954100      1.35699000
 H         5.15160900     -3.12260800     -0.20129900
 H         3.96854500     -3.76400700      0.93439000
 C         3.31120700     -2.03952400     -0.15077400
 O         2.70616300     -2.45536000     -1.12871800
 N         3.05571600     -0.78813400      0.37821700
 H         3.41364500     -0.57411100      1.30066100
 C         1.93700900      0.00397100     -0.12294800
 C         2.21755800      1.51558600      0.02044600
 O         1.31517100      2.31111800      0.27629300
 C         0.58808500     -0.39409300      0.51040400
 C        -0.61554200      0.05691900     -0.32858700
 C        -1.95670900     -0.31082800      0.33370800
 C        -3.10188600      0.18497300     -0.54423100
 N        -4.52833000     -0.06074800     -0.02288000
 C        -5.49676000      0.49435700     -1.03730000
 C        -4.79218300     -1.53460000      0.14493000
 C        -4.74772900      0.64252700      1.29178900
 H         1.88949000     -0.22753200     -1.19442800
 H         0.57928600     -1.48613100      0.60271700
 H         0.51904500      0.03250700      1.51872200
 H        -0.55585300      1.14037600     -0.46586100
 H        -0.55850000     -0.41190800     -1.32093900
 H        -2.00943400     -1.39741200      0.47184600
 H        -1.99709700      0.15336900      1.32599900
 H        -3.03127500      1.26664900     -0.69014800
 H        -3.06970400     -0.29282600     -1.52777500
 H        -5.78972500      0.51195000      1.58821000
 H        -4.09210100      0.21114500      2.04656000
 H        -4.52546800      1.70333400      1.16562600
 H        -6.51575400      0.33116500     -0.68279100
 H        -5.30986600      1.56246000     -1.15701200
 H        -5.34599900     -0.01872300     -1.98814900
 H        -5.83380100     -1.67221700      0.43954900
 H        -4.60386700     -2.03704600     -0.80521900
 H        -4.13420700     -1.93390200      0.91525200
 N         3.50853500      1.87839800     -0.18224500
 H         4.16966900      1.14705000     -0.40714100
 C         3.95472400      3.26334200     -0.17629900
 H         3.11524100      3.88137600      0.14327900
 H         4.27276400      3.57958700     -1.17624600
 H         4.78926100      3.39726500      0.51974400

