%nprocshared=16
%mem=512MB
%chk=KM3_nterm_hf.chk
#p hf/6-31g(d) SCF=Tight Pop=MK IOp(6/33=2)

KM3_nterm

2 1
 N         3.50485400     -2.11896400     -0.05078600
 C         2.58857800     -1.01209500     -0.54734200
 C         3.22206600      0.24445700      0.11820600
 O         3.75588800      0.06589000      1.21546300
 C         1.16035000     -1.29910500     -0.03630400
 C         0.10761100     -0.26492500     -0.47787000
 C        -1.29747500     -0.63441500      0.04955900
 C        -2.32279500      0.41763800     -0.38791100
 N        -3.76962100      0.19205000      0.06355800
 C        -4.60260800      1.33826600     -0.47150600
 C        -4.32112900     -1.10074100     -0.48941900
 C        -3.87869900      0.18198600      1.57009000
 H         3.83289000     -1.75792100      0.88116500
 H         2.63393000     -0.99926500     -1.63961300
 H         0.85945000     -2.29127800     -0.39991700
 H         1.19445700     -1.34506700      1.05999100
 H         0.38799800      0.72858200     -0.10875400
 H         0.08370700     -0.20726100     -1.57453300
 H        -1.57273700     -1.62395100     -0.33231600
 H        -1.25749400     -0.70318500      1.14240300
 H        -2.04903400      1.40381200     -0.00187900
 H        -2.36602600      0.48239900     -1.47904500
 H         3.04208200     -3.02869300      0.04881600
 H         4.33376500     -2.24425600     -0.64453900
 H        -4.93319600      0.11267900      1.84081400
 H        -3.34399800     -0.67895400      1.96954900
 H        -3.45669500      1.10861300      1.96267500
 H        -5.63805200      1.19446500     -0.16018300
 H        -4.21958300      2.27562300     -0.06550000
 H        -4.53979500      1.34512000     -1.56064000
 H        -5.37541800     -1.17205900     -0.21841700
 H        -4.21870900     -1.09427100     -1.57585600
 H        -3.77845400     -1.94241600     -0.06071000
 N         3.11965500      1.41099700     -0.52808100
 H         2.75533900      1.41747400     -1.47286800
 C         3.69264500      2.66210900     -0.00981500
 H         2.95158400      3.46157000     -0.07960300
 H         4.58085800      2.93729100     -0.58558800
 H         3.97054900      2.50619000      1.03187500

