%nprocshared=16
%mem=512MB
#P b3lyp/6-31g* opt

CKM3  b3lyp/6-31g* geometry optimisation

0 1
 C        20.04200000      3.68400000      7.51100000
 H        21.00200000      3.31500000      7.87100000
 H        19.47900000      2.86300000      7.06900000
 H        19.47900000      4.10400000      8.34500000
 C        20.27400000      4.76200000      6.46200000
 O        19.45900000      5.67300000      6.33200000
 N        21.36200000      4.71200000      5.69000000
 H        22.00700000      3.94700000      5.82900000
 C        21.61100000      5.72800000      4.67900000
 C        22.92600000      5.41300000      3.95200000
 O        23.59800000      4.42600000      4.25300000
 C        21.60800000      7.10300000      5.35200000
 C        21.68100000      8.26600000      4.35700000
 C        21.73100000      9.65500000      5.00500000
 C        21.80500000     10.83300000      4.02400000
 N        21.85100000     12.14200000      4.69800000
 C        21.92200000     13.24700000      3.65600000
 C        20.60000000     12.32300000      5.54300000
 C        23.07900000     12.21000000      5.59200000
 O        23.34600000      6.24900000      2.96000000
 H        20.75800000      5.78500000      4.00200000
 H        20.69200000      7.22400000      5.93000000
 H        22.46900000      7.18500000      6.01500000
 H        22.57900000      8.16800000      3.74800000
 H        20.80200000      8.24900000      3.71200000
 H        20.83600000      9.80800000      5.60700000
 H        22.61300000      9.72700000      5.64200000
 H        22.70300000     10.74300000      3.41400000
 H        20.92600000     10.82400000      3.37900000
 H        23.11300000     13.17800000      6.09000000
 H        23.02900000     11.41800000      6.33900000
 H        23.97600000     12.08100000      4.98700000
 H        21.95600000     14.21500000      4.15500000
 H        22.81900000     13.11800000      3.05100000
 H        21.04100000     13.20000000      3.01600000
 H        20.63500000     13.29100000      6.04100000
 H        19.71900000     12.27500000      4.90300000
 H        20.54900000     11.53100000      6.29100000

