%nprocshared=16
%mem=512MB
%chk=KM3_cterm_hf.chk
#p hf/6-31g(d) SCF=Tight Pop=MK IOp(6/33=2)

KM3_cterm

0 1
 C         5.12079600      0.80740400      0.58554900
 H         4.77700100      1.54504300      1.31775100
 H         5.73594000      1.31502400     -0.16465300
 H         5.75964300      0.07425600      1.08774200
 C         3.98875600      0.07168100     -0.12419100
 O         4.21574900     -0.82035600     -0.94020900
 N         2.73579600      0.48384400      0.19806500
 H         2.57196400      1.17089800      0.92379300
 C         1.51904400     -0.08558000     -0.37331800
 C         0.39559000      0.97151100     -0.19985800
 O         0.26581400      1.43663600      0.96506200
 C         1.20491100     -1.42423500      0.34802100
 C        -0.09603400     -2.17409200     -0.01298900
 C        -1.39455700     -1.56035500      0.59540800
 C        -2.20149800     -0.84879000     -0.48993400
 N        -3.23435000      0.20084900     -0.01407300
 C        -3.42662400      1.16335000     -1.16014900
 C        -4.52809300     -0.46932500      0.32529500
 C        -2.76457700      1.00031000      1.18130700
 O        -0.32403900      1.21843100     -1.20869900
 H         1.69030300     -0.27125200     -1.43635500
 H         2.05300100     -2.08735600      0.14349500
 H         1.20711300     -1.22325200      1.42718700
 H        -0.19037700     -2.26149000     -1.10446600
 H         0.00167900     -3.20135400      0.35694900
 H        -1.99440100     -2.34074100      1.08121800
 H        -1.09052300     -0.84933300      1.36647800
 H        -1.51652200     -0.28399400     -1.12488300
 H        -2.77658200     -1.55608700     -1.09632900
 H        -3.47621000      1.81763500      1.31991700
 H        -2.78034700      0.35530200      2.06018400
 H        -1.74660800      1.38291100      1.01093700
 H        -4.20262500      1.88281000     -0.88912900
 H        -2.45632100      1.64334900     -1.32816900
 H        -3.73256300      0.59581800     -2.04172600
 H        -5.23576000      0.27805000      0.69042300
 H        -4.92770100     -0.95195700     -0.56861900
 H        -4.34669500     -1.21609300      1.10024400

